22	3

15	15	15	

0	0	0	0	3	2	3	4	
1	3	5	2	1	5	
1	5	4	3	2	6	7	
6	5	2	2	1	8	
3	4	1	4	1	9	
3	5	5	4	1	10	
5	3	5	2	1	11	
4	2	4	4	1	12	
4	3	2	2	1	13	
3	3	2	4	1	14	
1	3	3	2	1	15	
2	4	1	4	1	16	
4	1	4	4	1	17	
1	2	2	2	1	18	
2	5	5	4	1	18	
1	1	5	4	1	19	
1	4	5	4	1	20	
5	3	2	3	1	22	
3	5	3	3	1	21	
3	2	4	6	1	22	
2	1	6	2	1	22	
0	0	0	0	0	
